GeneratedTests/Random_7/Random_7_7.tsp
NAME: Random_7_7
TYPE: TSP
DIMENSION: 7
EDGE_WEIGHT_TYPE: EUC_2D
NODE_COORD_SECTION
1 2.6958048 18.40553
2 17.292105 8.040868
3 11.277437 0.88944125
4 2.5636456 7.5264573
5 9.102224 17.563356
6 8.533629 8.89826
7 9.757143 1.7894707
EOF
