GeneratedTests/Random_7/Random_7_7.txt
NAME: Random_7_7
TYPE: TSP
DIMENSION: 7
EDGE_WEIGHT_TYPE: EUC_2D
NODE_COORD_SECTION
1 8.119275 4.0682096
2 11.044895 4.8901234
3 2.0797005 12.454103
4 17.663494 2.1468165
5 8.01008 0.6876363
6 5.1616564 0.27136427
7 17.710558 12.869538
EOF
